unsat
(:added-eqs                   1740195
 :arith-eq-adapter            3000
 :arith-bound-propagations-lp 90429
 :arith-conflicts             357
 :arith-diseq                 102314
 :arith-fixed-eqs             132240
 :arith-lower                 95735
 :arith-make-feasible         49232
 :arith-max-columns           1214
 :arith-max-rows              669
 :arith-offset-eqs            36524
 :arith-upper                 162893
 :binary-propagations         7904819
 :conflicts                   16539
 :decisions                   1022639
 :del-clause                  13499
 :elim-unconstrained          4
 :max-memory                  53.33
 :memory                      35.96
 :minimized-lits              144435
 :mk-bool-var                 20248
 :mk-clause                   26349
 :mk-clause-binary            56756
 :num-allocs                  296359612
 :num-checks                  1
 :propagations                10471407
 :restarts                    104
 :rlimit-count                32378196
 :time                        7.14
 :total-time                  7.31)
